(set-info :source |printed by MathSAT|)
(declare-fun diff0 () Int)
(declare-fun call__main_.call_controleur.flby2.next () Bool)
(declare-fun call__main_.call_controleur2.diff () Int)
(declare-fun call__main_.call_hypothese2.ok.next () Bool)
(declare-fun call__main_.nS () Int)
(declare-fun call__main_.avance1.next () Bool)
(declare-fun param__S_.next () Bool)
(declare-fun call__main_.call_hypothese.flby2.next () Int)
(declare-fun call__main_.call_hypothese.c.next () Int)
(declare-fun call__main_.ast.next () Bool)
(declare-fun call__main_.retard0.next () Bool)
(declare-fun call_Sofar.flby.next () Bool)
(declare-fun call__main_.diff0 () Int)
(declare-fun call__main_.avance1 () Bool)
(declare-fun call__main_.call_controleur2.flby () Bool)
(declare-fun call__main_.call_hypothese2.ite4.next () Int)
(declare-fun call__main_.call_controleur2.retard () Bool)
(declare-fun call__main_.call_controleur2.avance.next () Bool)
(declare-fun call__main_.call_hypothese2.ite.next () Bool)
(declare-fun nS.next () Int)
(declare-fun call__main_.call_controleur.ite2.next () Bool)
(declare-fun call__main_.flby3.next () Int)
(declare-fun call__main_.call_controleur.retard () Bool)
(declare-fun call_Sofar.Sofar () Bool)
(declare-fun flby.next () Bool)
(declare-fun call__main_.call_hypothese.ite2.next () Bool)
(declare-fun param__B0_.next () Bool)
(declare-fun call__main_.call_hypothese.ite.next () Bool)
(declare-fun call__main_.call_hypothese2.ite2.next () Bool)
(declare-fun call__main_.diff1.next () Int)
(declare-fun call__main_.call_hypothese2.ite3.next () Int)
(declare-fun call__main_._H1_.next () Bool)
(declare-fun ast () Bool)
(declare-fun call__main_.call_controleur2.ite.next () Bool)
(declare-fun call__main_.flby2 () Int)
(declare-fun call__main_.call_hypothese2.flby2 () Int)
(declare-fun avance1.next () Bool)
(declare-fun call__main_.call_hypothese2.flby.next () Bool)
(declare-fun call_Sofar.flby () Bool)
(declare-fun call__main_.call_hypothese.ok () Bool)
(declare-fun diff1 () Int)
(declare-fun call__main_.avance0.next () Bool)
(declare-fun call__main_.call_controleur.flby.next () Bool)
(declare-fun call__main_.ite2.next () Int)
(declare-fun call__main_.call_hypothese2.flby () Bool)
(declare-fun retard1 () Bool)
(declare-fun call__main_.nS.next () Int)
(declare-fun _OK_.next () Bool)
(declare-fun call__main_.ast () Bool)
(declare-fun call__main_.call_hypothese2.flby2.next () Int)
(declare-fun call__main_.call_hypothese.ite3.next () Int)
(declare-fun call__main_.call_controleur2.retard.next () Bool)
(declare-fun ast.next () Bool)
(declare-fun call__main_.call_hypothese.ite4.next () Int)
(declare-fun call__main_.call_hypothese2.c () Int)
(declare-fun call__main_.call_controleur.avance.next () Bool)
(declare-fun nB0 () Int)
(declare-fun call__main_.diff1 () Int)
(declare-fun call_Sofar.Sofar.next () Bool)
(declare-fun call__main_.retard1 () Bool)
(declare-fun call__main_._H0_ () Bool)
(declare-fun diff0.next () Int)
(declare-fun call__main_.flby2.next () Int)
(declare-fun call__main_.nB1 () Int)
(declare-fun retard1.next () Bool)
(declare-fun call__main_.call_controleur2.diff.next () Int)
(declare-fun nB0.next () Int)
(declare-fun nB1 () Int)
(declare-fun call__main_.ite.next () Int)
(declare-fun call__main_.flby () Int)
(declare-fun call__main_.diff0.next () Int)
(declare-fun retard0 () Bool)
(declare-fun call__main_.call_controleur.ite.next () Bool)
(declare-fun call__main_.ite3.next () Int)
(declare-fun call__main_.call_hypothese2.ok () Bool)
(declare-fun call__main_.call_hypothese.flby () Bool)
(declare-fun call__main_.call_controleur.diff () Int)
(declare-fun param__B1_.next () Bool)
(declare-fun avance0 () Bool)
(declare-fun call__main_.call_controleur.flby () Bool)
(declare-fun call__main_.nB1.next () Int)
(declare-fun call__main_.call_hypothese.c () Int)
(declare-fun call__main_.flby3 () Int)
(declare-fun call__main_._H0_.next () Bool)
(declare-fun nS () Int)
(declare-fun diff1.next () Int)
(declare-fun call__main_.retard0 () Bool)
(declare-fun call__main_.nB0.next () Int)
(declare-fun retard0.next () Bool)
(declare-fun call__main_.call_controleur2.ite2.next () Bool)
(declare-fun call__main_._H1_ () Bool)
(declare-fun call__main_.call_hypothese2.c.next () Int)
(declare-fun call__main_.nB0 () Int)
(declare-fun call__main_.call_controleur.flby2 () Bool)
(declare-fun call__main_.call_controleur.diff.next () Int)
(declare-fun avance0.next () Bool)
(declare-fun call__main_.avance0 () Bool)
(declare-fun call__main_.call_controleur2.flby2 () Bool)
(declare-fun call__main_.call_controleur2.avance () Bool)
(declare-fun call__main_.call_controleur2.flby.next () Bool)
(declare-fun avance1 () Bool)
(declare-fun call__main_.call_controleur.retard.next () Bool)
(declare-fun flby () Bool)
(declare-fun call__main_.call_hypothese.flby2 () Int)
(declare-fun _OK_ () Bool)
(declare-fun call__main_.call_hypothese.flby.next () Bool)
(declare-fun nB1.next () Int)
(declare-fun call__main_.flby.next () Int)
(declare-fun call__main_.call_controleur.avance () Bool)
(declare-fun call__main_.call_controleur2.flby2.next () Bool)
(declare-fun call__main_.retard1.next () Bool)
(declare-fun call__main_.call_hypothese.ok.next () Bool)
(define-fun .def_914 () Bool (= call_Sofar.flby.next call_Sofar.Sofar.next))
(define-fun .def_911 () Bool (= call__main_.call_controleur2.flby2.next call__main_.call_controleur2.retard.next))
(define-fun .def_909 () Bool (= call__main_.call_controleur2.flby.next call__main_.call_controleur2.avance.next))
(define-fun .def_902 () Int (* (- 1) call__main_.nB1.next))
(define-fun .def_905 () Int (+ .def_902 call__main_.nS.next))
(define-fun .def_906 () Int (+ call__main_.call_controleur2.diff.next .def_905))
(define-fun .def_907 () Bool (= .def_906 0))
(define-fun .def_900 () Bool (= call__main_.call_controleur.flby2.next call__main_.call_controleur.retard.next))
(define-fun .def_898 () Bool (= call__main_.call_controleur.flby.next call__main_.call_controleur.avance.next))
(define-fun .def_891 () Int (* (- 1) call__main_.nB0.next))
(define-fun .def_894 () Int (+ .def_891 call__main_.nS.next))
(define-fun .def_895 () Int (+ call__main_.call_controleur.diff.next .def_894))
(define-fun .def_896 () Bool (= .def_895 0))
(define-fun .def_889 () Bool (= call__main_.call_hypothese2.flby2.next call__main_.call_hypothese2.c.next))
(define-fun .def_886 () Bool (= call__main_.call_hypothese2.flby.next call__main_.call_hypothese2.ok.next))
(define-fun .def_884 () Bool (= call__main_.call_hypothese.flby2.next call__main_.call_hypothese.c.next))
(define-fun .def_881 () Bool (= call__main_.call_hypothese.flby.next call__main_.call_hypothese.ok.next))
(define-fun .def_879 () Bool (= call__main_._H1_.next call__main_.call_hypothese2.ok.next))
(define-fun .def_876 () Bool (= call__main_._H0_.next call__main_.call_hypothese.ok.next))
(define-fun .def_873 () Bool (= call__main_.retard1.next call__main_.call_controleur2.retard.next))
(define-fun .def_870 () Bool (= call__main_.retard0.next call__main_.call_controleur.retard.next))
(define-fun .def_867 () Bool (= call__main_.avance1.next call__main_.call_controleur2.avance.next))
(define-fun .def_864 () Bool (= call__main_.avance0.next call__main_.call_controleur.avance.next))
(define-fun .def_861 () Bool (= call__main_.call_controleur2.diff.next call__main_.diff1.next))
(define-fun .def_859 () Bool (= call__main_.call_controleur.diff.next call__main_.diff0.next))
(define-fun .def_857 () Bool (= call__main_.flby3.next call__main_.nS.next))
(define-fun .def_855 () Bool (= call__main_.flby2.next call__main_.nB1.next))
(define-fun .def_853 () Bool (= call__main_.flby.next call__main_.nB0.next))
(define-fun .def_850 () Bool (and call__main_._H0_.next call__main_._H1_.next))
(define-fun .def_851 () Bool (= call__main_.ast.next .def_850))
(define-fun .def_846 () Bool (= ast.next call__main_.ast.next))
(define-fun .def_843 () Bool (= retard1.next call__main_.retard1.next))
(define-fun .def_839 () Bool (= retard0.next call__main_.retard0.next))
(define-fun .def_835 () Bool (= call__main_.avance1.next avance1.next))
(define-fun .def_832 () Bool (= call__main_.avance0.next avance0.next))
(define-fun .def_829 () Bool (= diff1.next call__main_.diff1.next))
(define-fun .def_825 () Bool (= diff0.next call__main_.diff0.next))
(define-fun .def_821 () Bool (= nS.next call__main_.nS.next))
(define-fun .def_817 () Bool (= nB1.next call__main_.nB1.next))
(define-fun .def_813 () Bool (= nB0.next call__main_.nB0.next))
(define-fun .def_810 () Bool (= flby.next _OK_.next))
(define-fun .def_814 () Bool (and .def_810 .def_813))
(define-fun .def_818 () Bool (and .def_814 .def_817))
(define-fun .def_822 () Bool (and .def_818 .def_821))
(define-fun .def_826 () Bool (and .def_822 .def_825))
(define-fun .def_830 () Bool (and .def_826 .def_829))
(define-fun .def_833 () Bool (and .def_830 .def_832))
(define-fun .def_836 () Bool (and .def_833 .def_835))
(define-fun .def_840 () Bool (and .def_836 .def_839))
(define-fun .def_844 () Bool (and .def_840 .def_843))
(define-fun .def_847 () Bool (and .def_844 .def_846))
(define-fun .def_852 () Bool (and .def_847 .def_851))
(define-fun .def_854 () Bool (and .def_852 .def_853))
(define-fun .def_856 () Bool (and .def_854 .def_855))
(define-fun .def_858 () Bool (and .def_856 .def_857))
(define-fun .def_860 () Bool (and .def_858 .def_859))
(define-fun .def_862 () Bool (and .def_860 .def_861))
(define-fun .def_865 () Bool (and .def_862 .def_864))
(define-fun .def_868 () Bool (and .def_865 .def_867))
(define-fun .def_871 () Bool (and .def_868 .def_870))
(define-fun .def_874 () Bool (and .def_871 .def_873))
(define-fun .def_877 () Bool (and .def_874 .def_876))
(define-fun .def_880 () Bool (and .def_877 .def_879))
(define-fun .def_882 () Bool (and .def_880 .def_881))
(define-fun .def_885 () Bool (and .def_882 .def_884))
(define-fun .def_887 () Bool (and .def_885 .def_886))
(define-fun .def_890 () Bool (and .def_887 .def_889))
(define-fun .def_897 () Bool (and .def_890 .def_896))
(define-fun .def_899 () Bool (and .def_897 .def_898))
(define-fun .def_901 () Bool (and .def_899 .def_900))
(define-fun .def_908 () Bool (and .def_901 .def_907))
(define-fun .def_910 () Bool (and .def_908 .def_909))
(define-fun .def_912 () Bool (and .def_910 .def_911))
(define-fun .def_915 () Bool (and .def_912 .def_914))
(define-fun .def_618 () Bool (= call_Sofar.flby call_Sofar.Sofar))
(define-fun .def_615 () Bool (= call__main_.call_controleur2.flby2 call__main_.call_controleur2.retard))
(define-fun .def_613 () Bool (= call__main_.call_controleur2.flby call__main_.call_controleur2.avance))
(define-fun .def_608 () Int (* (- 1) call__main_.call_controleur2.diff))
(define-fun .def_596 () Int (* (- 1) call__main_.nS))
(define-fun .def_609 () Int (+ .def_596 .def_608))
(define-fun .def_610 () Int (+ call__main_.nB1 .def_609))
(define-fun .def_611 () Bool (= .def_610 0))
(define-fun .def_603 () Bool (= call__main_.call_controleur.flby2 call__main_.call_controleur.retard))
(define-fun .def_601 () Bool (= call__main_.call_controleur.flby call__main_.call_controleur.avance))
(define-fun .def_595 () Int (* (- 1) call__main_.call_controleur.diff))
(define-fun .def_597 () Int (+ .def_596 .def_595))
(define-fun .def_598 () Int (+ call__main_.nB0 .def_597))
(define-fun .def_599 () Bool (= .def_598 0))
(define-fun .def_590 () Bool (= call__main_.call_hypothese2.flby2 call__main_.call_hypothese2.c))
(define-fun .def_587 () Bool (= call__main_.call_hypothese2.flby call__main_.call_hypothese2.ok))
(define-fun .def_585 () Bool (= call__main_.call_hypothese.flby2 call__main_.call_hypothese.c))
(define-fun .def_582 () Bool (= call__main_.call_hypothese.flby call__main_.call_hypothese.ok))
(define-fun .def_580 () Bool (= call__main_._H1_ call__main_.call_hypothese2.ok))
(define-fun .def_577 () Bool (= call__main_._H0_ call__main_.call_hypothese.ok))
(define-fun .def_574 () Bool (= call__main_.retard1 call__main_.call_controleur2.retard))
(define-fun .def_571 () Bool (= call__main_.retard0 call__main_.call_controleur.retard))
(define-fun .def_568 () Bool (= call__main_.avance1 call__main_.call_controleur2.avance))
(define-fun .def_565 () Bool (= call__main_.avance0 call__main_.call_controleur.avance))
(define-fun .def_562 () Bool (= call__main_.diff1 call__main_.call_controleur2.diff))
(define-fun .def_559 () Bool (= call__main_.diff0 call__main_.call_controleur.diff))
(define-fun .def_556 () Bool (= call__main_.flby3 call__main_.nS))
(define-fun .def_554 () Bool (= call__main_.flby2 call__main_.nB1))
(define-fun .def_552 () Bool (= call__main_.flby call__main_.nB0))
(define-fun .def_549 () Bool (and call__main_._H0_ call__main_._H1_))
(define-fun .def_550 () Bool (= call__main_.ast .def_549))
(define-fun .def_545 () Bool (= ast call__main_.ast))
(define-fun .def_542 () Bool (= retard1 call__main_.retard1))
(define-fun .def_538 () Bool (= retard0 call__main_.retard0))
(define-fun .def_534 () Bool (= avance1 call__main_.avance1))
(define-fun .def_530 () Bool (= avance0 call__main_.avance0))
(define-fun .def_526 () Bool (= diff1 call__main_.diff1))
(define-fun .def_522 () Bool (= diff0 call__main_.diff0))
(define-fun .def_518 () Bool (= nS call__main_.nS))
(define-fun .def_514 () Bool (= nB1 call__main_.nB1))
(define-fun .def_510 () Bool (= nB0 call__main_.nB0))
(define-fun .def_507 () Bool (= flby _OK_))
(define-fun .def_511 () Bool (and .def_507 .def_510))
(define-fun .def_515 () Bool (and .def_511 .def_514))
(define-fun .def_519 () Bool (and .def_515 .def_518))
(define-fun .def_523 () Bool (and .def_519 .def_522))
(define-fun .def_527 () Bool (and .def_523 .def_526))
(define-fun .def_531 () Bool (and .def_527 .def_530))
(define-fun .def_535 () Bool (and .def_531 .def_534))
(define-fun .def_539 () Bool (and .def_535 .def_538))
(define-fun .def_543 () Bool (and .def_539 .def_542))
(define-fun .def_546 () Bool (and .def_543 .def_545))
(define-fun .def_551 () Bool (and .def_546 .def_550))
(define-fun .def_553 () Bool (and .def_551 .def_552))
(define-fun .def_555 () Bool (and .def_553 .def_554))
(define-fun .def_557 () Bool (and .def_555 .def_556))
(define-fun .def_560 () Bool (and .def_557 .def_559))
(define-fun .def_563 () Bool (and .def_560 .def_562))
(define-fun .def_566 () Bool (and .def_563 .def_565))
(define-fun .def_569 () Bool (and .def_566 .def_568))
(define-fun .def_572 () Bool (and .def_569 .def_571))
(define-fun .def_575 () Bool (and .def_572 .def_574))
(define-fun .def_578 () Bool (and .def_575 .def_577))
(define-fun .def_581 () Bool (and .def_578 .def_580))
(define-fun .def_583 () Bool (and .def_581 .def_582))
(define-fun .def_586 () Bool (and .def_583 .def_585))
(define-fun .def_588 () Bool (and .def_586 .def_587))
(define-fun .def_591 () Bool (and .def_588 .def_590))
(define-fun .def_600 () Bool (and .def_591 .def_599))
(define-fun .def_602 () Bool (and .def_600 .def_601))
(define-fun .def_604 () Bool (and .def_602 .def_603))
(define-fun .def_612 () Bool (and .def_604 .def_611))
(define-fun .def_614 () Bool (and .def_612 .def_613))
(define-fun .def_616 () Bool (and .def_614 .def_615))
(define-fun .def_619 () Bool (and .def_616 .def_618))
(define-fun .def_916 () Bool (and .def_619 .def_915))
(define-fun .def_805 () Bool (and call_Sofar.Sofar ast.next))
(define-fun .def_807 () Bool (= .def_805 call_Sofar.flby.next))
(define-fun .def_802 () Bool (= call__main_.call_controleur2.ite2.next call__main_.call_controleur2.flby2.next))
(define-fun .def_799 () Bool (= call__main_.call_controleur2.ite.next call__main_.call_controleur2.flby.next))
(define-fun .def_792 () Bool (<= 0 call__main_.call_controleur2.diff.next))
(define-fun .def_793 () Bool (not .def_792))
(define-fun .def_794 () Bool (= call__main_.call_controleur2.ite2.next .def_793))
(define-fun .def_791 () Bool (not call__main_.call_controleur2.retard))
(define-fun .def_795 () Bool (or .def_791 .def_794))
(define-fun .def_786 () Bool (<= call__main_.call_controleur2.diff.next (- 10)))
(define-fun .def_788 () Bool (= .def_786 call__main_.call_controleur2.ite2.next))
(define-fun .def_789 () Bool (or call__main_.call_controleur2.retard .def_788))
(define-fun .def_782 () Bool (<= 10 call__main_.call_controleur2.diff.next))
(define-fun .def_783 () Bool (= call__main_.call_controleur2.ite.next .def_782))
(define-fun .def_784 () Bool (or call__main_.call_controleur2.avance .def_783))
(define-fun .def_777 () Bool (<= call__main_.call_controleur2.diff.next 0))
(define-fun .def_778 () Bool (not .def_777))
(define-fun .def_780 () Bool (= .def_778 call__main_.call_controleur2.ite.next))
(define-fun .def_775 () Bool (not call__main_.call_controleur2.avance))
(define-fun .def_781 () Bool (or .def_775 .def_780))
(define-fun .def_785 () Bool (and .def_781 .def_784))
(define-fun .def_790 () Bool (and .def_785 .def_789))
(define-fun .def_796 () Bool (and .def_790 .def_795))
(define-fun .def_773 () Bool (= call__main_.call_controleur.ite2.next call__main_.call_controleur.flby2.next))
(define-fun .def_770 () Bool (= call__main_.call_controleur.ite.next call__main_.call_controleur.flby.next))
(define-fun .def_763 () Bool (<= 0 call__main_.call_controleur.diff.next))
(define-fun .def_764 () Bool (not .def_763))
(define-fun .def_765 () Bool (= call__main_.call_controleur.ite2.next .def_764))
(define-fun .def_762 () Bool (not call__main_.call_controleur.retard))
(define-fun .def_766 () Bool (or .def_762 .def_765))
(define-fun .def_757 () Bool (<= call__main_.call_controleur.diff.next (- 10)))
(define-fun .def_759 () Bool (= .def_757 call__main_.call_controleur.ite2.next))
(define-fun .def_760 () Bool (or call__main_.call_controleur.retard .def_759))
(define-fun .def_753 () Bool (<= 10 call__main_.call_controleur.diff.next))
(define-fun .def_754 () Bool (= call__main_.call_controleur.ite.next .def_753))
(define-fun .def_755 () Bool (or call__main_.call_controleur.avance .def_754))
(define-fun .def_748 () Bool (<= call__main_.call_controleur.diff.next 0))
(define-fun .def_749 () Bool (not .def_748))
(define-fun .def_751 () Bool (= .def_749 call__main_.call_controleur.ite.next))
(define-fun .def_746 () Bool (not call__main_.call_controleur.avance))
(define-fun .def_752 () Bool (or .def_746 .def_751))
(define-fun .def_756 () Bool (and .def_752 .def_755))
(define-fun .def_761 () Bool (and .def_756 .def_760))
(define-fun .def_767 () Bool (and .def_761 .def_766))
(define-fun .def_744 () Bool (= call__main_.call_hypothese2.ite4.next call__main_.call_hypothese2.flby2.next))
(define-fun .def_739 () Bool (and call__main_.call_hypothese2.ite2.next call__main_.call_hypothese2.ite.next))
(define-fun .def_741 () Bool (= .def_739 call__main_.call_hypothese2.flby.next))
(define-fun .def_628 () Bool (<= 9 call__main_.call_hypothese2.c))
(define-fun .def_737 () Bool (or call__main_.call_hypothese2.ite2.next .def_628))
(define-fun .def_735 () Bool (= call__main_.call_hypothese.ite4.next call__main_.call_hypothese.flby2.next))
(define-fun .def_730 () Bool (and call__main_.call_hypothese.ite2.next call__main_.call_hypothese.ite.next))
(define-fun .def_732 () Bool (= .def_730 call__main_.call_hypothese.flby.next))
(define-fun .def_650 () Bool (<= 9 call__main_.call_hypothese.c))
(define-fun .def_728 () Bool (or call__main_.call_hypothese.ite2.next .def_650))
(define-fun .def_726 () Bool (= call__main_.ite3.next call__main_.flby3.next))
(define-fun .def_723 () Bool (= call__main_.ite2.next call__main_.flby2.next))
(define-fun .def_720 () Bool (= call__main_.ite.next call__main_.flby.next))
(define-fun .def_717 () Bool (or call__main_.retard1 call__main_.call_hypothese2.ite.next))
(define-fun .def_715 () Bool (or call__main_.retard0 call__main_.call_hypothese.ite.next))
(define-fun .def_708 () Bool (and call__main_.avance1 call__main_.avance1.next))
(define-fun .def_711 () Bool (not .def_708))
(define-fun .def_710 () Bool (= call__main_.call_hypothese2.ite3.next call__main_.call_hypothese2.ite4.next))
(define-fun .def_712 () Bool (or .def_710 .def_711))
(define-fun .def_706 () Bool (= call__main_.call_hypothese2.ite4.next 0))
(define-fun .def_709 () Bool (or .def_706 .def_708))
(define-fun .def_713 () Bool (and .def_709 .def_712))
(define-fun .def_698 () Bool (and call__main_.avance0 call__main_.avance0.next))
(define-fun .def_701 () Bool (not .def_698))
(define-fun .def_700 () Bool (= call__main_.call_hypothese.ite3.next call__main_.call_hypothese.ite4.next))
(define-fun .def_702 () Bool (or .def_700 .def_701))
(define-fun .def_696 () Bool (= call__main_.call_hypothese.ite4.next 0))
(define-fun .def_699 () Bool (or .def_696 .def_698))
(define-fun .def_703 () Bool (and .def_699 .def_702))
(define-fun .def_689 () Int (* (- 1) nB1))
(define-fun .def_690 () Int (+ nB0 .def_689))
(define-fun .def_691 () Bool (<= .def_690 30))
(define-fun .def_693 () Bool (= .def_691 flby.next))
(define-fun .def_683 () Bool (= call__main_.nS call__main_.ite3.next))
(define-fun .def_684 () Bool (or param__S_.next .def_683))
(define-fun .def_678 () Int (* (- 1) call__main_.ite3.next))
(define-fun .def_679 () Int (+ call__main_.nS .def_678))
(define-fun .def_680 () Bool (= .def_679 (- 1)))
(define-fun .def_667 () Bool (not param__S_.next))
(define-fun .def_681 () Bool (or .def_667 .def_680))
(define-fun .def_674 () Bool (not call__main_.retard0))
(define-fun .def_673 () Bool (= .def_667 call__main_.call_hypothese.ite.next))
(define-fun .def_675 () Bool (or .def_673 .def_674))
(define-fun .def_670 () Bool (not call__main_.retard1))
(define-fun .def_669 () Bool (= .def_667 call__main_.call_hypothese2.ite.next))
(define-fun .def_671 () Bool (or .def_669 .def_670))
(define-fun .def_676 () Bool (and .def_671 .def_675))
(define-fun .def_682 () Bool (and .def_676 .def_681))
(define-fun .def_685 () Bool (and .def_682 .def_684))
(define-fun .def_662 () Bool (= call__main_.nB0 call__main_.ite.next))
(define-fun .def_663 () Bool (or param__B0_.next .def_662))
(define-fun .def_657 () Int (* (- 1) call__main_.ite.next))
(define-fun .def_658 () Int (+ call__main_.nB0 .def_657))
(define-fun .def_659 () Bool (= .def_658 (- 2)))
(define-fun .def_646 () Bool (not param__B0_.next))
(define-fun .def_660 () Bool (or .def_646 .def_659))
(define-fun .def_644 () Bool (= call__main_.call_hypothese.c call__main_.call_hypothese.ite3.next))
(define-fun .def_654 () Bool (or .def_644 param__B0_.next))
(define-fun .def_651 () Bool (not .def_650))
(define-fun .def_649 () Bool (= .def_646 call__main_.call_hypothese.ite2.next))
(define-fun .def_652 () Bool (or .def_649 .def_651))
(define-fun .def_647 () Bool (or .def_644 .def_646))
(define-fun .def_653 () Bool (and .def_647 .def_652))
(define-fun .def_655 () Bool (and .def_653 .def_654))
(define-fun .def_661 () Bool (and .def_655 .def_660))
(define-fun .def_664 () Bool (and .def_661 .def_663))
(define-fun .def_640 () Bool (= call__main_.nB1 call__main_.ite2.next))
(define-fun .def_641 () Bool (or param__B1_.next .def_640))
(define-fun .def_635 () Int (* (- 1) call__main_.ite2.next))
(define-fun .def_636 () Int (+ call__main_.nB1 .def_635))
(define-fun .def_637 () Bool (= .def_636 (- 1)))
(define-fun .def_624 () Bool (not param__B1_.next))
(define-fun .def_638 () Bool (or .def_624 .def_637))
(define-fun .def_622 () Bool (= call__main_.call_hypothese2.c call__main_.call_hypothese2.ite3.next))
(define-fun .def_632 () Bool (or .def_622 param__B1_.next))
(define-fun .def_629 () Bool (not .def_628))
(define-fun .def_627 () Bool (= .def_624 call__main_.call_hypothese2.ite2.next))
(define-fun .def_630 () Bool (or .def_627 .def_629))
(define-fun .def_625 () Bool (or .def_622 .def_624))
(define-fun .def_631 () Bool (and .def_625 .def_630))
(define-fun .def_633 () Bool (and .def_631 .def_632))
(define-fun .def_639 () Bool (and .def_633 .def_638))
(define-fun .def_642 () Bool (and .def_639 .def_641))
(define-fun .def_665 () Bool (and .def_642 .def_664))
(define-fun .def_686 () Bool (and .def_665 .def_685))
(define-fun .def_694 () Bool (and .def_686 .def_693))
(define-fun .def_704 () Bool (and .def_694 .def_703))
(define-fun .def_714 () Bool (and .def_704 .def_713))
(define-fun .def_716 () Bool (and .def_714 .def_715))
(define-fun .def_718 () Bool (and .def_716 .def_717))
(define-fun .def_721 () Bool (and .def_718 .def_720))
(define-fun .def_724 () Bool (and .def_721 .def_723))
(define-fun .def_727 () Bool (and .def_724 .def_726))
(define-fun .def_729 () Bool (and .def_727 .def_728))
(define-fun .def_733 () Bool (and .def_729 .def_732))
(define-fun .def_736 () Bool (and .def_733 .def_735))
(define-fun .def_738 () Bool (and .def_736 .def_737))
(define-fun .def_742 () Bool (and .def_738 .def_741))
(define-fun .def_745 () Bool (and .def_742 .def_744))
(define-fun .def_768 () Bool (and .def_745 .def_767))
(define-fun .def_771 () Bool (and .def_768 .def_770))
(define-fun .def_774 () Bool (and .def_771 .def_773))
(define-fun .def_797 () Bool (and .def_774 .def_796))
(define-fun .def_800 () Bool (and .def_797 .def_799))
(define-fun .def_803 () Bool (and .def_800 .def_802))
(define-fun .def_808 () Bool (and .def_803 .def_807))
(define-fun .def_917 () Bool (and .def_808 .def_916))
(assert .def_917)
